x = 21;
y = 15;
c = 74;
n = 44;

p = [28  93  77  93  71  10  98  28  15  53  41  93  53  82  40  56  83  52  89  64  15  84  58  71  73  35  88  11  27  28  85  50  13  53  67  64  47  95  94  100  26  62  89  61];
w = [5  2  9  3  10  5  6  5  5  2  4  4  5  10  4  6  1  7  5  1  10  6  2  4  1  1  10  7  6  1  5  7  7  8  9  4  2  1  3  4  2  10  7  2];
s = [4  15  8  10  12  9  4  12  10  13  13  14  14  3  8  9  9  2  15  13  6  4  10  8  8  1  3  6  15  11  12  11  5  4  12  13  5  3  13  15  13  13  6  4];
